\ENCODING=ISO-8859-1
\Problem name: ilog.cplex

Minimize
 obj: 97.7838506334473 P191 + 153.143877654401 P192 + 254.135099629714 P193
      + 245.573223898182 P194 + 330.706776841431 P195 + 338.827675711007 P196
      + 224.30796237333 P197 + 232.428861242906 P198 + 322.377890760937 P199
      + 322.572336352271 P200 + 326.543812401115 P201 + 206.148459796146 P202
      + 206.445613890776 P203 + 214.566512760352 P204 + 215.95896327903 P205
      + 216.153409679777 P206 + 220.124884919208 P207 + 272.113947127298 P208
      + 128.167572984724 P209 + 130.929692386628 P210 + 280.234845996874 P211
      + 139.050591256204 P212 + 197.799460701846 P213 + 197.993907102592 P214
      + 198.096614796476 P215 + 198.291061197223 P216 + 201.965382342024 P217
      + 202.262536436654 P218 + 165.695019645392 P219 + 173.815918514968 P220
      + 263.785061046804 P221 + 263.979506638138 P222 + 119.818573890424 P223
      + 120.01302029117 P224 + 122.580693292328 P225 + 122.775139693075 P226
      + 267.950982686982 P227 + 123.984495530602 P228 + 126.746614932506 P229
      + 147.535517068208 P230 + 147.832671162838 P231 + 155.953570032414 P232
      + 157.366133564898 P233 + 157.560579156232 P234 + 161.532055205075 P235
      + 76.6685504895943 P236 + 139.206630987713 P237 + 139.401076579048 P238
      + 139.503785082344 P239 + 139.698230673678 P240 + 84.7894493591703 P241
      + 143.372552627891 P242 + 143.669706722522 P243 + 375.066734731391 P244
      + 309.319202173336 P245 + 309.513648574082 P246 + 250.911168399754 P247
      + 251.1056148005 P248 + 251.208322494384 P249 + 251.40276889513 P250
      + 313.485123813514 P251 + 255.077090039931 P252 + 255.374244134562 P253
      + 327.47870475052 P254 + 327.673151151266 P255 + 269.070670976938 P256
      + 269.265117377684 P257 + 331.644626390698 P258 + 273.236592617116 P259
      + 151.092110511371 P260 + 151.286556912117 P261 + 155.258032151549 P262
      + 159.186741354826 P263 + 159.381187755573 P264 + 238.552174152474 P265
      + 371.459490292059 P266 + 238.74662055322 P267 + 180.144140378892 P268
      + 313.051456518476 P269 + 180.338586779638 P270 + 180.441294473522 P271
      + 180.635740874268 P272 + 163.352662995004 P273 + 242.718095792652 P274
      + 184.310062019069 P275 + 184.6072161137 P276 + 256.711676729658 P277
      + 256.906123130404 P278 + 198.303642956076 P279 + 198.498089356822 P280
      + 260.877598369836 P281 + 202.469564596254 P282 + 87.1114744911243 P283
      + 87.3059208918706 P284 + 91.2773961313022 P285 + 267.958829054705 P286
      + 268.153275455451 P287 + 209.550795281123 P288 + 342.458111420707 P289
      + 209.745241681869 P290 + 209.847949375753 P291 + 210.042395776499 P292
      + 272.124750694883 P293 + 213.7167169213 P294 + 214.013871015931 P295
      + 286.118331631889 P296 + 286.312778032635 P297 + 227.710297858307 P298
      + 227.904744259053 P299 + 290.284253272067 P300 + 231.876219498484 P301
      + 109.73173739274 P302 + 109.926183793486 P303 + 113.897659032918 P304
      + 117.826368236195 P305 + 118.020814636941 P306 + 388.121835838501 P307
      + 340.110942130177 P308 + 347.184326447323 P309 + 281.702908356595 P310
      + 240.765398965417 P311 + 388.316281429836 P312 + 347.378772038658 P313
      + 240.959844556751 P314 + 392.287757478679 P315 + 344.276863770355 P316
      + 351.350248087501 P317 + 285.868829996773 P318 + 244.931320605594 P319
      + 386.611043845792 P320 + 345.673534454614 P321 + 338.600150137468 P322
      + 280.192116363886 P323 + 239.254606972708 P324 + 386.805489437127 P325
      + 345.867980045949 P326 + 239.449052564042 P327 + 390.77696548597 P328
      + 349.839456094792 P329 + 342.766071777646 P330 + 284.358038004064 P331
      + 243.420528612885 P332 + 244.371809496478 P333 + 252.700695576972 P334
      + 203.434300105299 P335 + 137.952882014571 P336 + 211.763186185794 P337
      + 97.0153726233929 P338 + 105.344258703887 P339 + 244.566255087812 P340
      + 203.628745696634 P341 + 97.2098182147273 P342 + 248.537731136655 P343
      + 142.118803654749 P344 + 207.600221745477 P345 + 101.181294263571 P346
      + 225.767570690384 P347 + 282.107350479203 P348 + 167.359536916802 P349
      + 273.972909990043 P350 + 225.962017091131 P351 + 167.553983317548 P352
      + 229.933492330562 P353 + 171.52545855698 P354 + 381.875757371416 P355
      + 373.124007563469 P356 + 373.318453964215 P357 + 377.289929203647 P358
      + 340.515384252785 P359 + 311.108729350554 P360 + 323.467723597834 P361
      + 314.715973789887 P362 + 267.127943809015 P363 + 314.910420190633 P364
      + 267.322390209762 P365 + 332.186498172291 P366 + 302.77984327006 P367
      + 332.380943763625 P368 + 302.974288861394 P369 + 318.881895430065 P370
      + 271.293865449193 P371 + 336.352419812469 P372 + 306.945764910238 P373
      + 311.109563258826 P374 + 311.304009659572 P375 + 315.275484899004 P376
      + 350.536280657295 P377 + 350.730727058041 P378 + 309.598771266117 P379
      + 309.793216857451 P380 + 369.517597032408 P381 + 405.777156161456 P382
      + 369.712043433154 P383 + 373.683518672586 P384 + 410.877970151039 P385
Subject To
 c1: P193 + P195 + P196 + P197 + P198 + P199 + P200 + P201 + P202 + P203 + P204
     + P205 + P206 + P207 + P209 + P210 + P212 + P213 + P214 + P215 + P216
     + P217 + P218 + P223 + P224 + P225 + P226 + P228 + P229 + P245 + P246
     + P251 + P254 + P255 + P258 + P265 + P266 + P267 + P274 + P277 + P278
     + P281 + P286 + P287 + P293 + P296 + P297 + P300 + P308 + P316 + P322
     + P330 + P347 + P351 + P353 + P355 + P356 + P357 + P358 + P359 + P360
     + P363 + P365 + P366 + P367 + P368 + P369 + P371 + P372 + P373 + P381
     + P382 + P383 + P384 + P385  = 1
 c1: P191 + P195 + P196 + P197 + P198 + P202 + P203 + P204 + P208 + P209 + P210
     + P211 + P212 + P219 + P220 + P230 + P231 + P232 + P236 + P241 + P266
     + P269 + P289 + P307 + P308 + P309 + P310 + P311 + P312 + P313 + P314
     + P315 + P316 + P317 + P318 + P319 + P334 + P337 + P339 + P348 + P355
     + P359 + P360 + P361 + P374 + P375 + P376 + P381 + P382 + P383 + P384
     + P385  = 1
 c2: P192 + P195 + P196 + P199 + P200 + P201 + P202 + P203 + P204 + P208 + P211
     + P213 + P214 + P215 + P216 + P217 + P218 + P221 + P222 + P227 + P230
     + P231 + P232 + P237 + P238 + P239 + P240 + P242 + P243 + P244 + P245
     + P246 + P247 + P248 + P249 + P250 + P251 + P252 + P253 + P265 + P266
     + P267 + P268 + P269 + P270 + P271 + P272 + P274 + P275 + P276 + P286
     + P287 + P288 + P289 + P290 + P291 + P292 + P293 + P294 + P295 + P307
     + P309 + P312 + P313 + P315 + P317 + P320 + P321 + P325 + P326 + P328
     + P329 + P333 + P334 + P335 + P337 + P340 + P341 + P343 + P345 + P348
     + P350 + P355 + P356 + P357 + P358 + P359 + P360 + P361 + P362 + P364
     + P366 + P367 + P368 + P369 + P370 + P372 + P373 + P382  = 1
 c3: P194 + P195 + P196 + P197 + P198 + P199 + P200 + P201 + P205 + P206 + P207
     + P208 + P211 + P219 + P220 + P221 + P222 + P227 + P233 + P234 + P235
     + P244 + P254 + P255 + P256 + P257 + P258 + P259 + P266 + P269 + P277
     + P278 + P279 + P280 + P281 + P282 + P289 + P296 + P297 + P298 + P299
     + P300 + P301 + P307 + P308 + P309 + P310 + P311 + P312 + P313 + P314
     + P315 + P316 + P317 + P318 + P319 + P320 + P321 + P322 + P323 + P324
     + P325 + P326 + P327 + P328 + P329 + P330 + P331 + P332 + P374 + P375
     + P376 + P377 + P378 + P379 + P380 + P381 + P382 + P383 + P384 + P385  = 1
 c4: P193 + P244 + P245 + P246 + P247 + P248 + P249 + P250 + P251 + P252 + P253
     + P254 + P255 + P256 + P257 + P258 + P259 + P260 + P261 + P262 + P263
     + P264 + P265 + P266 + P267 + P268 + P269 + P270 + P271 + P272 + P273
     + P274 + P275 + P276 + P277 + P278 + P279 + P280 + P281 + P282 + P283
     + P284 + P285 + P307 + P308 + P310 + P312 + P315 + P316 + P318 + P320
     + P322 + P323 + P325 + P328 + P330 + P331 + P333 + P334 + P336 + P340
     + P343 + P344 + P355 + P356 + P357 + P358 + P360 + P361 + P362 + P363
     + P364 + P365 + P367 + P369 + P370 + P371 + P373 + P377 + P378 + P385  = 1
 c5: P194 + P244 + P245 + P246 + P247 + P248 + P249 + P250 + P251 + P252 + P253
     + P254 + P255 + P256 + P257 + P258 + P259 + P260 + P261 + P262 + P263
     + P264 + P273 + P286 + P287 + P288 + P289 + P290 + P291 + P292 + P293
     + P294 + P295 + P296 + P297 + P298 + P299 + P300 + P301 + P302 + P303
     + P304 + P305 + P306 + P347 + P348 + P349 + P350 + P351 + P352 + P353
     + P354 + P355 + P356 + P357 + P358 + P359 + P361 + P362 + P363 + P364
     + P365 + P366 + P368 + P370 + P371 + P372 + P374 + P375 + P376 + P377
     + P378 + P379 + P380 + P381 + P383 + P384 + P385  = 1
 c6: P193 + P307 + P308 + P309 + P310 + P311 + P312 + P313 + P314 + P315 + P316
     + P317 + P318 + P319 + P320 + P321 + P322 + P323 + P324 + P325 + P326
     + P327 + P328 + P329 + P330 + P331 + P332 + P333 + P334 + P335 + P336
     + P337 + P338 + P339 + P340 + P341 + P342 + P343 + P344 + P345 + P346
     + P347 + P348 + P349 + P350 + P351 + P352 + P353 + P354 + P355 + P356
     + P357 + P358 + P359 + P360 + P361 + P362 + P363 + P364 + P365 + P366
     + P367 + P368 + P369 + P370 + P371 + P372 + P373 + P374 + P375 + P376
     + P377 + P378 + P379 + P380 + P381 + P382 + P383 + P384 + P385  = 1
 c7: P191 + P192 + P193 + P194 + P195 + P196 + P197 + P198 + P199 + P200 + P201
     + P202 + P203 + P204 + P205 + P206 + P207 + P208 + P209 + P210 + P211
     + P212 + P213 + P214 + P215 + P216 + P217 + P218 + P219 + P220 + P221
     + P222 + P223 + P224 + P225 + P226 + P227 + P228 + P229 + P230 + P231
     + P232 + P233 + P234 + P235 + P236 + P237 + P238 + P239 + P240 + P241
     + P242 + P243 + P244 + P245 + P246 + P247 + P248 + P249 + P250 + P251
     + P252 + P253 + P254 + P255 + P256 + P257 + P258 + P259 + P260 + P261
     + P262 + P263 + P264 + P265 + P266 + P267 + P268 + P269 + P270 + P271
     + P272 + P273 + P274 + P275 + P276 + P277 + P278 + P279 + P280 + P281
     + P282 + P283 + P284 + P285 + P286 + P287 + P288 + P289 + P290 + P291
     + P292 + P293 + P294 + P295 + P296 + P297 + P298 + P299 + P300 + P301
     + P302 + P303 + P304 + P305 + P306 + P307 + P308 + P309 + P310 + P311
     + P312 + P313 + P314 + P315 + P316 + P317 + P318 + P319 + P320 + P321
     + P322 + P323 + P324 + P325 + P326 + P327 + P328 + P329 + P330 + P331
     + P332 + P333 + P334 + P335 + P336 + P337 + P338 + P339 + P340 + P341
     + P342 + P343 + P344 + P345 + P346 + P347 + P348 + P349 + P350 + P351
     + P352 + P353 + P354 + P355 + P356 + P357 + P358 + P359 + P360 + P361
     + P362 + P363 + P364 + P365 + P366 + P367 + P368 + P369 + P370 + P371
     + P372 + P373 + P374 + P375 + P376 + P377 + P378 + P379 + P380 + P381
     + P382 + P383 + P384 + P385 <= 4
Bounds
 0 <= P191 <= 1
 0 <= P192 <= 1
 0 <= P193 <= 1
 0 <= P194 <= 1
 0 <= P195 <= 1
 0 <= P196 <= 1
 0 <= P197 <= 1
 0 <= P198 <= 1
 0 <= P199 <= 1
 0 <= P200 <= 1
 0 <= P201 <= 1
 0 <= P202 <= 1
 0 <= P203 <= 1
 0 <= P204 <= 1
 0 <= P205 <= 1
 0 <= P206 <= 1
 0 <= P207 <= 1
 0 <= P208 <= 1
 0 <= P209 <= 1
 0 <= P210 <= 1
 0 <= P211 <= 1
 0 <= P212 <= 1
 0 <= P213 <= 1
 0 <= P214 <= 1
 0 <= P215 <= 1
 0 <= P216 <= 1
 0 <= P217 <= 1
 0 <= P218 <= 1
 0 <= P219 <= 1
 0 <= P220 <= 1
 0 <= P221 <= 1
 0 <= P222 <= 1
 0 <= P223 <= 1
 0 <= P224 <= 1
 0 <= P225 <= 1
 0 <= P226 <= 1
 0 <= P227 <= 1
 0 <= P228 <= 1
 0 <= P229 <= 1
 0 <= P230 <= 1
 0 <= P231 <= 1
 0 <= P232 <= 1
 0 <= P233 <= 1
 0 <= P234 <= 1
 0 <= P235 <= 1
 0 <= P236 <= 1
 0 <= P237 <= 1
 0 <= P238 <= 1
 0 <= P239 <= 1
 0 <= P240 <= 1
 0 <= P241 <= 1
 0 <= P242 <= 1
 0 <= P243 <= 1
 0 <= P244 <= 1
 0 <= P245 <= 1
 0 <= P246 <= 1
 0 <= P247 <= 1
 0 <= P248 <= 1
 0 <= P249 <= 1
 0 <= P250 <= 1
 0 <= P251 <= 1
 0 <= P252 <= 1
 0 <= P253 <= 1
 0 <= P254 <= 1
 0 <= P255 <= 1
 0 <= P256 <= 1
 0 <= P257 <= 1
 0 <= P258 <= 1
 0 <= P259 <= 1
 0 <= P260 <= 1
 0 <= P261 <= 1
 0 <= P262 <= 1
 0 <= P263 <= 1
 0 <= P264 <= 1
 0 <= P265 <= 1
 0 <= P266 <= 1
 0 <= P267 <= 1
 0 <= P268 <= 1
 0 <= P269 <= 1
 0 <= P270 <= 1
 0 <= P271 <= 1
 0 <= P272 <= 1
 0 <= P273 <= 1
 0 <= P274 <= 1
 0 <= P275 <= 1
 0 <= P276 <= 1
 0 <= P277 <= 1
 0 <= P278 <= 1
 0 <= P279 <= 1
 0 <= P280 <= 1
 0 <= P281 <= 1
 0 <= P282 <= 1
 0 <= P283 <= 1
 0 <= P284 <= 1
 0 <= P285 <= 1
 0 <= P286 <= 1
 0 <= P287 <= 1
 0 <= P288 <= 1
 0 <= P289 <= 1
 0 <= P290 <= 1
 0 <= P291 <= 1
 0 <= P292 <= 1
 0 <= P293 <= 1
 0 <= P294 <= 1
 0 <= P295 <= 1
 0 <= P296 <= 1
 0 <= P297 <= 1
 0 <= P298 <= 1
 0 <= P299 <= 1
 0 <= P300 <= 1
 0 <= P301 <= 1
 0 <= P302 <= 1
 0 <= P303 <= 1
 0 <= P304 <= 1
 0 <= P305 <= 1
 0 <= P306 <= 1
 0 <= P307 <= 1
 0 <= P308 <= 1
 0 <= P309 <= 1
 0 <= P310 <= 1
 0 <= P311 <= 1
 0 <= P312 <= 1
 0 <= P313 <= 1
 0 <= P314 <= 1
 0 <= P315 <= 1
 0 <= P316 <= 1
 0 <= P317 <= 1
 0 <= P318 <= 1
 0 <= P319 <= 1
 0 <= P320 <= 1
 0 <= P321 <= 1
 0 <= P322 <= 1
 0 <= P323 <= 1
 0 <= P324 <= 1
 0 <= P325 <= 1
 0 <= P326 <= 1
 0 <= P327 <= 1
 0 <= P328 <= 1
 0 <= P329 <= 1
 0 <= P330 <= 1
 0 <= P331 <= 1
 0 <= P332 <= 1
 0 <= P333 <= 1
 0 <= P334 <= 1
 0 <= P335 <= 1
 0 <= P336 <= 1
 0 <= P337 <= 1
 0 <= P338 <= 1
 0 <= P339 <= 1
 0 <= P340 <= 1
 0 <= P341 <= 1
 0 <= P342 <= 1
 0 <= P343 <= 1
 0 <= P344 <= 1
 0 <= P345 <= 1
 0 <= P346 <= 1
 0 <= P347 <= 1
 0 <= P348 <= 1
 0 <= P349 <= 1
 0 <= P350 <= 1
 0 <= P351 <= 1
 0 <= P352 <= 1
 0 <= P353 <= 1
 0 <= P354 <= 1
 0 <= P355 <= 1
 0 <= P356 <= 1
 0 <= P357 <= 1
 0 <= P358 <= 1
 0 <= P359 <= 1
 0 <= P360 <= 1
 0 <= P361 <= 1
 0 <= P362 <= 1
 0 <= P363 <= 1
 0 <= P364 <= 1
 0 <= P365 <= 1
 0 <= P366 <= 1
 0 <= P367 <= 1
 0 <= P368 <= 1
 0 <= P369 <= 1
 0 <= P370 <= 1
 0 <= P371 <= 1
 0 <= P372 <= 1
 0 <= P373 <= 1
 0 <= P374 <= 1
 0 <= P375 <= 1
 0 <= P376 <= 1
 0 <= P377 <= 1
 0 <= P378 <= 1
 0 <= P379 <= 1
 0 <= P380 <= 1
 0 <= P381 <= 1
 0 <= P382 <= 1
 0 <= P383 <= 1
 0 <= P384 <= 1
 0 <= P385 <= 1
Generals
 P191  P192  P193  P194  P195  P196  P197  P198  P199  P200  P201  P202  P203 
 P204  P205  P206  P207  P208  P209  P210  P211  P212  P213  P214  P215  P216 
 P217  P218  P219  P220  P221  P222  P223  P224  P225  P226  P227  P228  P229 
 P230  P231  P232  P233  P234  P235  P236  P237  P238  P239  P240  P241  P242 
 P243  P244  P245  P246  P247  P248  P249  P250  P251  P252  P253  P254  P255 
 P256  P257  P258  P259  P260  P261  P262  P263  P264  P265  P266  P267  P268 
 P269  P270  P271  P272  P273  P274  P275  P276  P277  P278  P279  P280  P281 
 P282  P283  P284  P285  P286  P287  P288  P289  P290  P291  P292  P293  P294 
 P295  P296  P297  P298  P299  P300  P301  P302  P303  P304  P305  P306  P307 
 P308  P309  P310  P311  P312  P313  P314  P315  P316  P317  P318  P319  P320 
 P321  P322  P323  P324  P325  P326  P327  P328  P329  P330  P331  P332  P333 
 P334  P335  P336  P337  P338  P339  P340  P341  P342  P343  P344  P345  P346 
 P347  P348  P349  P350  P351  P352  P353  P354  P355  P356  P357  P358  P359 
 P360  P361  P362  P363  P364  P365  P366  P367  P368  P369  P370  P371  P372 
 P373  P374  P375  P376  P377  P378  P379  P380  P381  P382  P383  P384  P385 
End
